--- Job Ejercicio3.gms Start 10/12/23 13:12:05 44.1.1 27c4d1f8 WEX-WEI x86 64bit/MS Windows
--- Applying:
    C:\GAMS\44\gmsprmNT.txt
--- GAMS Parameters defined
    Input "C:\Users\El supremo\Documents\MOS\Laboratorio 3\Ejercicio3.gms"
    PageSize 0
    ScrDir "C:\Users\El supremo\Documents\MOS\Laboratorio 3\225a\"
    SysDir C:\GAMS\44\
    LogOption 3
    ErrMsg 1
    ErrorLog 99
    IDE 1
    LstTitleLeftAligned 1
Licensee: GAMS Demo license for Paola Campino            G230808|0002CO-GEN
          Universidad de los Andes, Colombia                       DL096105
          C:\Users\El supremo\Documents\GAMS\gamslice.txt
          p.campino@uniandes.edu.co, Paola Campino                         
          Demo license for demonstration and instructional purposes only
Processor information: 1 socket(s), 4 core(s), and 8 thread(s) available
GAMS 44.1.1   Copyright (C) 1987-2023 GAMS Development. All rights reserved
--- Starting compilation
--- Ejercicio3.gms(91) 3 Mb
--- Starting execution: elapsed 0:00:00.017
--- Ejercicio3.gms(77) 4 Mb
--- Generating MIP model model3
--- Ejercicio3.gms(78) 4 Mb
---   19 rows  17 columns  83 non-zeroes
---   16 discrete-columns
--- Range statistics (absolute non-zero finite values)
--- RHS       [min, max] : [ 1.000E+00, 1.600E+01] - Zero values observed as well
--- Bound     [min, max] : [ 1.000E+00, 1.000E+00] - Zero values observed as well
--- Matrix    [min, max] : [ 1.000E+00, 5.000E+00]
--- Executing CPLEX (Solvelink=2): elapsed 0:00:00.032

IBM ILOG CPLEX   44.1.1 27c4d1f8 Aug 3, 2023           WEI x86 64bit/MS Window

--- *** This solver runs with a demo license. No commercial use.
--- GMO setup time: 0.00s
--- GMO memory 0.50 Mb (peak 0.50 Mb)
--- Dictionary memory 0.00 Mb
--- Cplex 22.1.1.0 link memory 0.00 Mb (peak 0.00 Mb)
--- Starting Cplex

Version identifier: 22.1.1.0 | 2022-11-27 | 9160aff4d
CPXPARAM_Advance                                 0
CPXPARAM_Simplex_Display                         2
CPXPARAM_Threads                                 1
CPXPARAM_MIP_Display                             4
CPXPARAM_MIP_Pool_Capacity                       0
CPXPARAM_MIP_Tolerances_AbsMIPGap                0
Generic callback                                 0x50
Tried aggregator 4 times.
MIP Presolve eliminated 9 rows and 8 columns.
MIP Presolve added 1 rows and 1 columns.
MIP Presolve modified 35 coefficients.
Aggregator did 11 substitutions.
All rows and columns eliminated.
Presolve time = 0.02 sec. (0.07 ticks)

Root node processing (before b&c):
  Real time             =    0.02 sec. (0.07 ticks)
Sequential b&c:
  Real time             =    0.00 sec. (0.00 ticks)
                          ------------
Total (root+branch&cut) =    0.02 sec. (0.07 ticks)

--- MIP status (101): integer optimal solution.
--- Cplex Time: 0.02sec (det. 0.07 ticks)

--- Returning a primal only solution to GAMS (marginals all set to NA).
--- Fixing integer variables and solving final LP...

Version identifier: 22.1.1.0 | 2022-11-27 | 9160aff4d
CPXPARAM_Advance                                 2
CPXPARAM_Simplex_Display                         2
CPXPARAM_Threads                                 1
CPXPARAM_MIP_Display                             4
CPXPARAM_MIP_Pool_Capacity                       0
CPXPARAM_MIP_Tolerances_AbsMIPGap                0
Tried aggregator 1 time.
LP Presolve eliminated 19 rows and 18 columns.
All rows and columns eliminated.
Presolve time = 0.00 sec. (0.01 ticks)

--- Fixed MIP status (1): optimal.
--- Cplex Time: 0.00sec (det. 0.02 ticks)


Proven optimal solution
MIP Solution:            4.000000    (0 iterations, 0 nodes)
Final Solve:             4.000000    (0 iterations)

Best possible:           4.000000
Absolute gap:            0.000000
Relative gap:            0.000000

--- Reading solution for model model3
--- Executing after solve: elapsed 0:00:00.187
--- Ejercicio3.gms(81) 4 Mb
*** Status: Normal completion
--- Job Ejercicio3.gms Stop 10/12/23 13:12:05 elapsed 0:00:00.190
